5993 7959
8100 6350
7511 9372
9029 4867
5626 3735
4985 5048
2140 5571
4504 8863
263 9714
4417 5405
8832 8099
8042 5319
3847 8742
6901 4631
2206 8527
9993 2517
8287 2075
7764 4313
128 208
4169 2096
6346 8951
5039 7257
1498 6073
2092 9658
7654 1442
1191 9958
942 5843
5085 6168
2966 47
3334 6423
7394 6848
2318 3649
952 252
4836 3618
4704 1552
7863 4047
3995 7746
9847 8820
2763 2992
8042 1013
4352 1741
7280 5361
1030 1876
7136 1622
2503 6964
7691 2265
8234 4865
3209 2083
3411 4079
1806 9882
